conp prop opti comp phon noden 
name ex09
cell
   4.212000   4.212000   4.212000  90.000000  90.000000  90.000000
fractional    3
Mg   core  0.000000   0.000000   0.000000    2.000000 1.0000 0.00000
O    core  0.500000   0.500000   0.500000    0.800000 1.0000 0.00000
O    bshe  0.500000   0.500000   0.500000   -2.800000 1.0000 1.12468
space
225
observables
elastic 
 1 1  298.00
elastic
 1 2   95.00
elastic
 4 4  152.00
sdlc
 1 1   9.86
hfdlc
 1 1   2.96
end
buck
 Mg core O shel  81.6296   0.3105  0.00000 0.000 10.000
spring
 O  60.5693 
bsm
 O shel  443.8989  1.200000
buck
O    shel O    shel       0.000000 0.300000   36.00000  0.000 10.000
dump example9.grs
